p edge 308 293
e 1 2
e 1 3
e 1 4
e 1 5
e 1 6
e 1 7
e 1 8
e 1 9
e 1 10
e 1 11
e 1 12
e 1 13
e 1 14
e 1 15
e 1 16
e 1 17
e 1 18
e 19 20
e 19 21
e 19 22
e 19 23
e 19 24
e 19 25
e 19 26
e 19 27
e 19 28
e 19 29
e 19 30
e 19 31
e 19 32
e 19 33
e 19 34
e 19 35
e 19 36
e 19 37
e 19 38
e 19 39
e 19 40
e 19 41
e 19 42
e 19 43
e 19 44
e 19 45
e 19 46
e 47 48
e 47 49
e 47 50
e 47 51
e 47 52
e 47 53
e 47 54
e 47 55
e 47 56
e 47 57
e 47 58
e 47 59
e 47 60
e 47 61
e 47 62
e 47 63
e 47 64
e 47 65
e 47 66
e 47 67
e 47 68
e 47 69
e 47 70
e 47 71
e 72 73
e 72 74
e 72 75
e 72 76
e 72 77
e 72 78
e 72 79
e 72 80
e 72 81
e 72 82
e 72 83
e 72 84
e 72 85
e 72 86
e 72 87
e 72 88
e 72 89
e 72 90
e 72 91
e 72 92
e 93 94
e 93 95
e 93 96
e 93 97
e 93 98
e 93 99
e 93 100
e 93 101
e 93 102
e 93 103
e 93 104
e 93 105
e 93 106
e 93 107
e 93 108
e 93 109
e 110 111
e 110 112
e 110 113
e 110 114
e 110 115
e 110 116
e 110 117
e 110 118
e 110 119
e 110 120
e 110 121
e 110 122
e 110 123
e 110 124
e 110 125
e 126 127
e 126 128
e 126 129
e 126 130
e 126 131
e 126 132
e 126 133
e 126 134
e 126 135
e 126 136
e 126 137
e 126 138
e 126 139
e 126 140
e 141 142
e 141 143
e 141 144
e 141 145
e 141 146
e 141 147
e 141 148
e 141 149
e 141 150
e 141 151
e 141 152
e 141 153
e 141 154
e 141 155
e 141 156
e 141 157
e 141 158
e 141 159
e 141 160
e 141 161
e 141 162
e 141 163
e 141 164
e 141 165
e 141 166
e 141 167
e 168 169
e 168 170
e 168 171
e 168 172
e 168 173
e 168 174
e 168 175
e 168 176
e 168 177
e 168 178
e 168 179
e 168 180
e 168 181
e 168 182
e 168 183
e 168 184
e 168 185
e 168 186
e 168 187
e 168 188
e 189 190
e 189 191
e 189 192
e 189 193
e 189 194
e 189 195
e 189 196
e 189 197
e 189 198
e 189 199
e 189 200
e 189 201
e 189 202
e 189 203
e 189 204
e 189 205
e 189 206
e 189 207
e 189 208
e 189 209
e 189 210
e 189 211
e 189 212
e 189 213
e 189 214
e 189 215
e 189 216
e 217 218
e 217 219
e 217 220
e 217 221
e 217 222
e 217 223
e 217 224
e 217 225
e 217 226
e 217 227
e 228 229
e 228 230
e 228 231
e 228 232
e 228 233
e 228 234
e 228 235
e 228 236
e 228 237
e 228 238
e 228 239
e 228 240
e 228 241
e 228 242
e 228 243
e 228 244
e 228 245
e 228 246
e 228 247
e 248 249
e 248 250
e 248 251
e 248 252
e 248 253
e 248 254
e 248 255
e 248 256
e 248 257
e 248 258
e 248 259
e 248 260
e 248 261
e 248 262
e 248 263
e 248 264
e 248 265
e 266 267
e 266 268
e 266 269
e 266 270
e 266 271
e 266 272
e 266 273
e 266 274
e 266 275
e 266 276
e 266 277
e 266 278
e 266 279
e 266 280
e 266 281
e 266 282
e 266 283
e 266 284
e 266 285
e 266 286
e 266 287
e 266 288
e 289 290
e 289 291
e 289 292
e 289 293
e 289 294
e 289 295
e 289 296
e 289 297
e 289 298
e 289 299
e 289 300
e 289 301
e 289 302
e 289 303
e 289 304
e 289 305
e 289 306
e 289 307
e 289 308
